p cep 250 4507
1 2
1 3
1 4
1 5
1 6
1 8
1 9
1 12
1 13
1 14
1 15
1 16
1 17
1 18
1 19
1 20
1 21
1 22
1 23
1 24
1 183
1 205
1 207
1 212
1 213
2 3
2 4
2 5
2 6
2 7
2 8
2 9
2 11
2 12
2 13
2 14
2 15
2 16
2 17
2 18
2 19
2 20
2 21
2 22
2 23
2 24
2 201
2 208
2 217
2 229
2 250
3 4
3 5
3 6
3 7
3 8
3 9
3 11
3 12
3 13
3 14
3 15
3 16
3 17
3 18
3 19
3 20
3 21
3 22
3 23
3 24
3 187
3 195
4 5
4 6
4 8
4 9
4 11
4 12
4 13
4 14
4 15
4 16
4 17
4 18
4 19
4 20
4 21
4 22
4 23
4 24
4 25
5 6
5 8
5 9
5 11
5 12
5 13
5 14
5 15
5 16
5 17
5 18
5 19
5 20
5 21
5 22
5 23
5 24
5 217
6 8
6 9
6 12
6 14
6 15
6 16
6 17
6 18
6 20
6 21
6 22
6 23
6 24
7 8
7 11
7 12
7 13
7 14
7 16
7 17
7 18
7 19
7 25
8 9
8 12
8 13
8 14
8 15
8 16
8 17
8 18
8 19
8 20
8 21
8 22
8 23
8 24
9 12
9 13
9 14
9 15
9 16
9 17
9 18
9 19
9 20
9 21
9 23
9 24
10 11
10 13
10 14
10 19
10 25
11 12
11 13
11 14
11 16
11 18
11 19
11 21
11 22
11 24
11 25
12 13
12 14
12 15
12 16
12 17
12 18
12 19
12 20
12 21
12 22
12 23
12 24
12 25
12 217
13 14
13 15
13 16
13 17
13 18
13 19
13 20
13 21
13 22
13 24
13 25
13 185
14 15
14 16
14 17
14 18
14 19
14 20
14 21
14 22
14 23
14 24
14 25
14 117
14 193
15 16
15 17
15 18
15 19
15 20
15 21
15 23
15 24
15 178
16 17
16 18
16 19
16 20
16 21
16 22
16 23
16 24
16 25
17 18
17 19
17 20
17 21
17 22
17 23
17 24
18 19
18 20
18 21
18 22
18 23
18 24
19 20
19 21
19 22
19 23
19 24
19 25
20 21
20 22
20 23
20 24
20 183
20 205
20 207
20 212
20 213
21 22
21 23
21 24
21 180
21 202
21 208
21 217
22 24
23 24
23 183
24 208
26 27
26 28
26 29
26 30
26 31
26 32
26 33
26 34
26 35
26 36
26 37
26 38
26 39
26 40
26 41
26 42
26 43
26 44
26 45
26 46
26 47
26 48
26 49
26 50
26 51
26 53
26 54
26 55
26 69
26 75
26 101
26 105
26 106
26 109
26 119
26 120
26 122
26 123
26 130
26 133
26 134
26 150
27 28
27 29
27 30
27 31
27 32
27 33
27 34
27 35
27 36
27 37
27 38
27 39
27 40
27 41
27 42
27 43
27 44
27 45
27 46
27 47
27 48
27 49
27 50
27 130
27 133
27 148
27 149
28 29
28 30
28 31
28 32
28 33
28 34
28 35
28 36
28 37
28 38
28 39
28 40
28 41
28 42
28 43
28 44
28 45
28 46
28 47
28 48
28 49
28 50
28 51
28 54
28 60
28 72
28 75
28 103
28 105
28 106
28 112
28 117
28 118
28 119
28 122
28 123
28 130
28 131
28 232
28 243
28 247
28 249
29 30
29 31
29 32
29 33
29 34
29 35
29 36
29 37
29 38
29 39
29 40
29 41
29 42
29 43
29 44
29 45
29 46
29 47
29 48
29 49
29 50
29 51
29 53
29 54
29 69
29 75
29 101
29 123
29 130
29 133
29 134
29 149
29 150
30 31
30 32
30 33
30 34
30 35
30 36
30 37
30 38
30 39
30 40
30 41
30 42
30 43
30 44
30 45
30 46
30 47
30 48
30 49
30 50
30 51
30 53
30 54
30 57
30 62
30 102
30 105
30 106
30 109
30 122
30 123
30 130
30 134
30 137
30 140
30 149
30 150
31 32
31 33
31 34
31 35
31 36
31 37
31 38
31 39
31 40
31 41
31 42
31 43
31 44
31 45
31 46
31 47
31 48
31 49
31 50
31 57
31 67
31 69
31 74
31 126
31 133
31 134
31 135
31 137
31 143
31 148
31 149
31 150
32 33
32 34
32 35
32 36
32 37
32 38
32 39
32 40
32 41
32 42
32 43
32 44
32 45
32 46
32 47
32 48
32 49
32 50
32 51
32 54
32 55
32 57
32 60
32 62
32 67
32 69
32 72
32 101
32 105
32 106
32 109
32 112
32 113
32 120
32 122
32 123
32 124
32 126
32 130
32 131
32 133
32 134
32 135
32 137
32 143
32 150
33 34
33 35
33 36
33 37
33 38
33 39
33 40
33 41
33 42
33 43
33 44
33 45
33 46
33 47
33 48
33 49
33 50
33 123
34 35
34 36
34 37
34 38
34 39
34 40
34 41
34 42
34 43
34 44
34 45
34 46
34 47
34 48
34 49
34 50
34 54
34 75
34 103
34 105
34 112
34 117
34 118
34 119
34 122
34 130
34 182
34 240
35 36
35 37
35 38
35 39
35 40
35 41
35 42
35 43
35 44
35 45
35 46
35 47
35 48
35 49
35 50
35 51
35 54
35 72
35 75
35 103
35 105
35 112
35 118
35 130
35 131
35 191
35 192
35 228
35 232
35 234
35 235
35 238
35 240
35 242
35 243
35 247
35 249
36 37
36 38
36 39
36 40
36 41
36 42
36 43
36 44
36 45
36 46
36 47
36 48
36 49
36 50
36 57
36 75
36 143
36 150
37 38
37 39
37 40
37 41
37 42
37 43
37 44
37 45
37 46
37 47
37 48
37 49
37 50
37 69
37 101
37 105
37 109
37 113
37 116
37 117
37 121
37 122
37 123
37 124
37 130
37 134
37 135
37 149
37 150
38 39
38 40
38 41
38 42
38 43
38 44
38 45
38 46
38 47
38 48
38 49
38 50
38 51
38 54
38 55
38 60
38 69
38 72
38 75
38 101
38 103
38 105
38 106
38 109
38 110
38 112
38 115
38 117
38 118
38 119
38 120
38 122
38 123
38 124
38 125
38 130
38 131
38 134
38 149
38 192
38 228
38 243
39 40
39 41
39 42
39 43
39 44
39 45
39 46
39 47
39 48
39 49
39 50
39 51
39 53
39 54
39 60
39 72
39 75
39 105
39 112
39 117
39 122
39 130
40 41
40 42
40 43
40 44
40 45
40 46
40 47
40 48
40 49
40 50
40 59
40 61
40 109
40 114
40 126
40 133
40 149
41 42
41 43
41 44
41 45
41 46
41 47
41 48
41 49
41 50
41 51
41 54
41 60
41 72
41 105
41 130
41 131
41 150
42 43
42 44
42 45
42 46
42 47
42 48
42 49
42 50
42 59
42 69
42 109
42 114
42 122
42 126
42 133
42 137
42 149
42 150
43 44
43 45
43 46
43 47
43 48
43 49
43 50
43 51
43 53
43 54
43 55
43 60
43 69
43 72
43 75
43 101
43 105
43 106
43 109
43 112
43 114
43 115
43 117
43 118
43 120
43 122
43 123
43 130
43 131
43 134
43 149
43 150
44 45
44 46
44 47
44 48
44 49
44 50
44 51
44 69
44 102
44 105
44 109
44 114
44 117
44 122
44 126
44 130
44 143
44 149
44 150
45 46
45 47
45 48
45 49
45 50
45 62
45 69
45 101
45 109
45 126
45 127
45 134
45 149
46 47
46 48
46 49
46 50
46 51
46 54
46 72
46 103
46 105
46 112
46 118
46 119
46 130
46 131
46 232
46 249
47 48
47 49
47 50
47 51
47 53
47 54
47 55
47 60
47 72
47 75
47 101
47 103
47 105
47 106
47 111
47 112
47 115
47 117
47 118
47 119
47 120
47 122
47 123
47 130
47 131
47 133
47 134
47 149
47 150
47 185
47 232
47 238
47 242
47 249
48 49
48 50
48 69
48 103
48 105
48 106
48 109
48 116
48 126
48 130
48 133
48 134
48 137
48 143
48 150
48 230
48 233
49 50
49 51
49 55
49 69
49 75
49 101
49 102
49 103
49 105
49 106
49 109
49 110
49 112
49 114
49 115
49 116
49 117
49 118
49 119
49 120
49 121
49 122
49 123
49 124
49 130
49 134
49 149
50 51
50 54
50 60
50 72
50 75
50 101
50 105
50 106
50 112
50 118
50 120
50 122
50 123
50 125
50 130
50 131
50 133
50 137
50 150
51 52
51 53
51 54
51 55
51 56
51 57
51 58
51 59
51 60
51 61
51 62
51 63
51 64
51 65
51 66
51 67
51 68
51 69
51 70
51 71
51 72
51 73
51 74
51 75
51 101
51 102
51 103
51 105
51 106
51 109
51 110
51 111
51 112
51 113
51 114
51 115
51 117
51 118
51 119
51 120
51 122
51 123
51 124
51 125
51 126
51 127
51 128
51 130
51 131
51 133
51 134
51 136
51 137
51 139
51 140
51 143
51 148
51 149
51 150
51 226
51 227
51 228
51 229
51 232
51 234
51 236
51 245
51 247
52 53
52 54
52 55
52 56
52 57
52 58
52 59
52 60
52 61
52 62
52 63
52 64
52 65
52 66
52 67
52 68
52 69
52 70
52 71
52 72
52 73
52 74
52 75
52 107
52 109
52 126
52 128
52 132
52 133
52 135
52 136
52 137
52 138
52 139
52 140
52 142
52 143
52 145
52 146
52 147
52 148
52 149
52 150
53 54
53 55
53 56
53 57
53 58
53 59
53 60
53 61
53 62
53 63
53 64
53 65
53 66
53 67
53 68
53 69
53 70
53 71
53 72
53 73
53 74
53 75
53 101
53 102
53 105
53 106
53 109
53 110
53 114
53 115
53 116
53 117
53 118
53 119
53 120
53 122
53 123
53 124
53 125
53 126
53 127
53 128
53 129
53 130
53 131
53 132
53 133
53 134
53 136
53 137
53 138
53 139
53 140
53 141
53 142
53 143
53 147
53 148
53 149
53 150
53 226
53 227
53 228
53 229
53 230
53 232
53 237
53 239
53 242
53 245
53 247
53 248
54 55
54 56
54 57
54 58
54 59
54 60
54 61
54 62
54 63
54 64
54 65
54 66
54 67
54 68
54 69
54 70
54 71
54 72
54 73
54 74
54 75
54 101
54 103
54 105
54 106
54 109
54 110
54 111
54 112
54 115
54 116
54 117
54 118
54 119
54 120
54 122
54 123
54 125
54 126
54 127
54 128
54 129
54 130
54 131
54 133
54 134
54 137
54 138
54 140
54 141
54 142
54 143
54 148
54 149
54 150
54 228
54 229
54 230
54 232
54 234
54 237
54 238
54 240
54 242
54 243
54 245
54 247
54 249
55 56
55 57
55 58
55 59
55 60
55 61
55 62
55 63
55 64
55 65
55 66
55 67
55 68
55 69
55 70
55 71
55 72
55 73
55 74
55 75
55 101
55 102
55 105
55 106
55 109
55 110
55 112
55 114
55 115
55 116
55 117
55 118
55 119
55 120
55 122
55 123
55 124
55 125
55 126
55 127
55 128
55 130
55 131
55 133
55 134
55 137
55 140
55 143
55 148
55 149
55 150
55 228
55 229
55 230
55 232
55 248
56 57
56 58
56 59
56 60
56 61
56 62
56 63
56 64
56 65
56 66
56 67
56 68
56 69
56 70
56 71
56 72
56 73
56 74
56 75
56 109
56 128
56 132
56 133
56 136
56 137
56 138
56 139
56 142
56 148
56 150
57 58
57 59
57 60
57 61
57 62
57 63
57 64
57 65
57 66
57 67
57 68
57 69
57 70
57 71
57 72
57 73
57 74
57 75
57 102
57 106
57 108
57 109
57 120
57 126
57 127
57 128
57 130
57 131
57 133
57 134
57 137
57 138
57 140
57 141
57 143
57 148
57 149
57 150
57 216
57 226
57 227
57 228
57 230
57 232
57 236
57 239
57 242
57 248
58 59
58 60
58 61
58 62
58 63
58 64
58 65
58 66
58 67
58 68
58 69
58 70
58 71
58 72
58 73
58 74
58 75
58 126
58 128
58 132
58 135
58 136
58 137
58 138
58 139
58 142
58 146
58 147
58 148
58 149
58 150
58 228
59 60
59 61
59 62
59 63
59 64
59 65
59 66
59 67
59 68
59 69
59 70
59 71
59 72
59 73
59 74
59 75
59 107
59 108
59 109
59 114
59 120
59 124
59 126
59 128
59 133
59 134
59 136
59 137
59 138
59 139
59 140
59 141
59 142
59 143
59 147
59 148
59 149
59 150
59 233
60 61
60 62
60 63
60 64
60 65
60 66
60 67
60 68
60 69
60 70
60 71
60 72
60 73
60 74
60 75
60 101
60 102
60 103
60 104
60 105
60 106
60 109
60 110
60 111
60 112
60 113
60 114
60 115
60 116
60 117
60 118
60 119
60 120
60 122
60 123
60 124
60 125
60 126
60 127
60 128
60 129
60 130
60 131
60 133
60 134
60 135
60 136
60 137
60 138
60 139
60 140
60 141
60 142
60 143
60 148
60 149
60 150
60 182
60 185
60 227
60 228
60 229
60 230
60 232
60 234
60 237
60 238
60 239
60 240
60 242
60 243
60 245
60 246
60 247
60 248
60 249
61 62
61 63
61 64
61 65
61 66
61 67
61 68
61 69
61 70
61 71
61 72
61 73
61 74
61 75
61 102
61 105
61 107
61 109
61 114
61 124
61 126
61 127
61 128
61 129
61 130
61 132
61 133
61 134
61 135
61 136
61 137
61 138
61 139
61 140
61 142
61 143
61 145
61 146
61 148
61 149
61 150
61 227
61 236
62 63
62 64
62 65
62 66
62 67
62 68
62 69
62 70
62 71
62 72
62 73
62 74
62 75
62 101
62 102
62 105
62 106
62 107
62 109
62 111
62 113
62 114
62 120
62 121
62 124
62 126
62 127
62 128
62 129
62 130
62 131
62 132
62 133
62 134
62 135
62 136
62 137
62 138
62 139
62 140
62 141
62 142
62 143
62 145
62 146
62 148
62 149
62 150
62 227
62 228
62 229
62 232
62 234
62 235
62 236
62 239
62 241
62 245
63 64
63 65
63 66
63 67
63 68
63 69
63 70
63 71
63 72
63 73
63 74
63 75
63 102
63 106
63 107
63 109
63 114
63 115
63 116
63 120
63 124
63 126
63 127
63 128
63 129
63 130
63 133
63 134
63 137
63 138
63 140
63 141
63 142
63 143
63 148
63 149
63 150
63 236
64 65
64 66
64 67
64 68
64 69
64 70
64 71
64 72
64 73
64 74
64 75
64 124
64 126
64 127
64 128
64 129
64 132
64 133
64 135
64 136
64 137
64 138
64 139
64 142
64 143
64 145
64 146
64 148
64 149
64 227
64 236
64 241
65 66
65 67
65 68
65 69
65 70
65 71
65 72
65 73
65 74
65 75
65 126
65 128
65 129
65 130
65 132
65 133
65 135
65 136
65 137
65 138
65 139
65 140
65 141
65 142
65 143
65 145
65 146
65 147
65 148
65 149
65 150
65 245
66 67
66 68
66 69
66 70
66 71
66 72
66 73
66 74
66 75
66 101
66 102
66 105
66 106
66 109
66 110
66 115
66 116
66 117
66 118
66 119
66 120
66 122
66 123
66 124
66 125
66 128
66 130
66 131
66 133
66 140
66 142
66 143
66 148
66 149
66 150
66 228
67 68
67 69
67 70
67 71
67 72
67 73
67 74
67 75
67 116
67 120
67 121
67 123
67 124
67 126
67 127
67 128
67 129
67 130
67 131
67 133
67 134
67 135
67 136
67 137
67 138
67 140
67 141
67 143
67 149
67 150
67 227
67 235
67 236
68 69
68 70
68 71
68 72
68 73
68 74
68 75
68 102
68 110
68 113
68 114
68 121
68 123
68 124
68 126
68 127
68 128
68 129
68 130
68 131
68 132
68 133
68 134
68 135
68 136
68 137
68 138
68 139
68 140
68 141
68 142
68 143
68 147
68 148
68 149
68 150
68 228
69 70
69 71
69 72
69 73
69 74
69 75
69 109
69 114
69 116
69 120
69 121
69 123
69 124
69 126
69 127
69 128
69 129
69 130
69 133
69 134
69 135
69 136
69 137
69 138
69 140
69 141
69 142
69 143
69 145
69 148
69 149
69 150
70 71
70 72
70 73
70 74
70 75
70 124
70 126
70 128
70 129
70 130
70 132
70 133
70 134
70 135
70 136
70 138
70 139
70 140
70 141
70 142
70 143
70 145
70 146
70 147
70 148
70 149
70 150
70 228
71 72
71 73
71 74
71 75
71 102
71 105
71 106
71 107
71 109
71 114
71 120
71 124
71 126
71 127
71 128
71 129
71 130
71 133
71 134
71 135
71 136
71 137
71 138
71 139
71 140
71 141
71 142
71 143
71 148
71 149
71 150
71 236
72 73
72 74
72 75
72 101
72 103
72 105
72 106
72 110
72 111
72 112
72 115
72 117
72 118
72 119
72 120
72 122
72 123
72 125
72 126
72 128
72 130
72 131
72 134
72 140
72 149
72 150
72 164
72 228
72 232
72 234
72 240
72 242
73 74
73 75
73 107
73 114
73 124
73 126
73 127
73 128
73 130
73 132
73 133
73 134
73 136
73 137
73 138
73 139
73 140
73 141
73 142
73 143
73 147
73 148
73 149
73 150
73 236
73 239
74 75
74 101
74 102
74 105
74 106
74 109
74 113
74 114
74 120
74 121
74 124
74 126
74 127
74 128
74 129
74 130
74 133
74 134
74 135
74 136
74 137
74 138
74 139
74 140
74 141
74 142
74 143
74 145
74 147
74 148
74 149
74 150
74 227
74 236
75 101
75 102
75 105
75 106
75 109
75 110
75 113
75 115
75 116
75 117
75 118
75 119
75 120
75 122
75 123
75 125
75 126
75 127
75 128
75 129
75 130
75 131
75 133
75 134
75 136
75 137
75 138
75 140
75 141
75 142
75 143
75 148
75 149
75 150
75 227
75 228
75 229
75 232
75 234
75 238
75 239
75 242
75 244
75 245
76 77
76 78
76 79
76 80
76 81
76 82
76 83
76 84
76 85
76 87
76 88
76 89
76 90
76 91
76 92
76 93
76 94
76 96
76 97
76 98
76 99
76 100
77 78
77 79
77 80
77 81
77 82
77 83
77 84
77 85
77 86
77 87
77 88
77 89
77 90
77 91
77 92
77 93
77 94
77 95
77 96
77 97
77 98
77 99
77 100
78 79
78 80
78 81
78 82
78 83
78 84
78 85
78 86
78 87
78 88
78 89
78 90
78 91
78 92
78 93
78 94
78 95
78 96
78 97
78 98
78 99
78 100
79 80
79 81
79 82
79 83
79 84
79 85
79 86
79 87
79 88
79 89
79 90
79 91
79 92
79 93
79 94
79 95
79 96
79 97
79 98
79 99
79 100
80 81
80 82
80 83
80 84
80 85
80 86
80 87
80 88
80 89
80 90
80 91
80 92
80 93
80 94
80 95
80 96
80 97
80 98
80 99
80 100
81 82
81 83
81 84
81 85
81 86
81 87
81 88
81 89
81 90
81 91
81 92
81 93
81 94
81 95
81 96
81 97
81 98
81 99
81 100
82 83
82 84
82 85
82 86
82 87
82 88
82 89
82 90
82 91
82 92
82 93
82 94
82 95
82 96
82 97
82 98
82 99
82 100
83 84
83 85
83 86
83 87
83 88
83 89
83 90
83 91
83 92
83 93
83 94
83 95
83 96
83 97
83 98
83 99
83 100
84 85
84 87
84 88
84 89
84 90
84 91
84 92
84 93
84 94
84 97
84 98
84 99
84 100
85 86
85 87
85 88
85 89
85 90
85 91
85 92
85 93
85 94
85 95
85 96
85 97
85 98
85 99
85 100
86 87
86 88
86 89
86 90
86 91
86 92
86 93
86 94
86 95
86 96
86 97
86 98
86 99
86 100
87 88
87 89
87 90
87 91
87 92
87 93
87 94
87 95
87 96
87 97
87 98
87 99
87 100
88 89
88 90
88 91
88 92
88 93
88 94
88 95
88 96
88 97
88 98
88 99
88 100
89 90
89 91
89 92
89 93
89 94
89 95
89 96
89 97
89 98
89 99
89 100
90 91
90 92
90 93
90 94
90 95
90 96
90 97
90 98
90 99
90 100
91 92
91 93
91 94
91 95
91 96
91 97
91 98
91 99
91 100
92 93
92 94
92 95
92 96
92 97
92 98
92 99
92 100
93 94
93 95
93 96
93 97
93 98
93 99
93 100
94 95
94 96
94 97
94 98
94 99
94 100
95 96
95 97
95 98
95 99
95 100
96 97
96 98
96 99
96 100
96 210
96 219
96 223
97 98
97 99
97 100
98 99
98 100
99 100
101 102
101 103
101 104
101 105
101 106
101 107
101 108
101 109
101 110
101 111
101 112
101 113
101 114
101 115
101 116
101 117
101 118
101 119
101 120
101 121
101 122
101 123
101 124
101 125
101 126
101 127
101 130
101 131
101 133
101 134
101 135
101 136
101 137
101 139
101 140
101 142
101 143
101 145
101 149
101 228
101 229
101 232
102 103
102 104
102 105
102 106
102 107
102 108
102 109
102 110
102 111
102 112
102 113
102 114
102 115
102 116
102 117
102 118
102 119
102 120
102 121
102 122
102 123
102 124
102 125
102 126
102 130
102 134
102 136
102 137
102 139
102 140
102 149
102 150
103 104
103 105
103 106
103 108
103 109
103 110
103 111
103 112
103 113
103 114
103 115
103 116
103 117
103 118
103 119
103 120
103 121
103 122
103 123
103 124
103 125
103 130
103 131
103 150
103 232
104 105
104 106
104 107
104 108
104 109
104 110
104 111
104 112
104 113
104 114
104 115
104 116
104 117
104 118
104 119
104 120
104 121
104 122
104 123
104 124
104 125
105 106
105 107
105 108
105 109
105 110
105 111
105 112
105 113
105 114
105 115
105 116
105 117
105 118
105 119
105 120
105 121
105 122
105 123
105 124
105 125
105 126
105 130
105 131
105 133
105 134
105 137
105 139
105 140
105 143
105 149
105 150
105 171
105 232
105 238
105 240
105 249
106 107
106 108
106 109
106 110
106 111
106 112
106 113
106 114
106 115
106 116
106 117
106 118
106 119
106 120
106 121
106 122
106 123
106 124
106 125
106 126
106 130
106 131
106 133
106 134
106 137
106 140
106 143
106 149
106 150
106 192
106 232
107 108
107 109
107 110
107 111
107 112
107 113
107 114
107 115
107 116
107 117
107 118
107 119
107 120
107 121
107 122
107 123
107 124
107 125
107 126
107 137
107 139
107 140
107 142
107 148
107 149
108 109
108 110
108 111
108 112
108 113
108 114
108 115
108 116
108 117
108 118
108 119
108 120
108 121
108 122
108 123
108 124
108 125
108 126
108 140
108 143
109 110
109 111
109 112
109 113
109 114
109 115
109 116
109 117
109 118
109 119
109 120
109 121
109 122
109 123
109 124
109 125
109 126
109 127
109 128
109 129
109 130
109 131
109 133
109 134
109 135
109 136
109 137
109 138
109 139
109 140
109 141
109 142
109 143
109 145
109 147
109 148
109 149
109 150
109 227
110 111
110 112
110 113
110 114
110 115
110 116
110 117
110 118
110 119
110 120
110 121
110 122
110 123
110 124
110 125
110 130
110 131
110 134
110 149
110 228
111 112
111 113
111 114
111 115
111 116
111 117
111 118
111 119
111 120
111 121
111 122
111 123
111 124
111 125
111 126
111 130
111 131
111 143
111 182
111 185
111 190
111 192
111 194
111 232
111 234
111 242
111 249
112 113
112 114
112 115
112 116
112 117
112 118
112 119
112 120
112 121
112 122
112 123
112 124
112 125
112 130
112 131
112 137
112 229
113 114
113 115
113 116
113 117
113 118
113 119
113 120
113 121
113 122
113 123
113 124
113 125
113 126
113 130
113 136
113 140
113 149
114 115
114 116
114 117
114 118
114 119
114 120
114 121
114 122
114 123
114 124
114 125
114 126
114 127
114 128
114 130
114 132
114 133
114 134
114 136
114 137
114 138
114 139
114 140
114 141
114 142
114 143
114 145
114 146
114 148
114 149
114 150
115 116
115 117
115 118
115 119
115 120
115 121
115 122
115 123
115 124
115 125
115 126
115 130
115 131
115 134
115 149
115 150
115 228
115 229
116 117
116 118
116 119
116 120
116 121
116 122
116 123
116 124
116 125
116 126
116 128
116 130
116 133
116 134
116 135
116 140
116 142
116 143
116 149
116 150
116 230
116 248
117 118
117 119
117 120
117 121
117 122
117 123
117 124
117 125
117 126
117 130
117 131
117 137
117 149
117 171
117 180
117 182
117 185
117 189
117 191
117 192
117 232
118 119
118 120
118 121
118 122
118 123
118 124
118 125
118 130
118 131
118 134
118 149
118 232
118 238
118 249
119 120
119 121
119 122
119 123
119 124
119 125
119 130
119 131
119 217
120 121
120 122
120 123
120 124
120 125
120 126
120 130
120 131
120 133
120 134
120 135
120 136
120 137
120 138
120 140
120 143
120 148
120 149
120 150
121 122
121 123
121 124
121 125
121 126
121 129
121 134
121 140
121 143
121 149
122 123
122 124
122 125
122 126
122 130
122 131
122 134
122 137
122 149
122 150
123 124
123 125
123 126
123 129
123 130
123 131
123 134
123 135
123 137
123 140
123 149
123 150
123 164
124 125
124 126
124 128
124 130
124 132
124 133
124 134
124 135
124 136
124 137
124 139
124 140
124 143
124 145
124 147
124 148
124 149
124 150
125 126
125 130
125 131
125 133
125 134
125 137
125 140
125 143
125 149
126 127
126 128
126 129
126 130
126 131
126 132
126 133
126 134
126 135
126 136
126 137
126 138
126 139
126 140
126 141
126 142
126 143
126 145
126 146
126 147
126 148
126 149
126 150
126 227
126 230
126 232
126 233
126 236
126 241
126 248
127 128
127 129
127 130
127 131
127 132
127 133
127 134
127 135
127 136
127 137
127 138
127 139
127 140
127 141
127 142
127 143
127 145
127 146
127 147
127 148
127 149
127 150
127 227
127 236
127 239
128 129
128 130
128 131
128 132
128 133
128 134
128 135
128 136
128 137
128 138
128 139
128 140
128 141
128 142
128 143
128 144
128 145
128 146
128 147
128 148
128 149
128 150
128 227
128 233
128 241
128 245
129 130
129 131
129 132
129 133
129 134
129 135
129 136
129 137
129 138
129 139
129 140
129 141
129 142
129 143
129 145
129 146
129 147
129 148
129 149
129 150
130 131
130 132
130 133
130 134
130 135
130 136
130 137
130 138
130 139
130 140
130 141
130 142
130 143
130 145
130 146
130 147
130 148
130 149
130 150
130 171
130 227
130 228
130 229
130 232
130 234
130 235
130 238
130 240
130 242
130 243
130 245
131 132
131 133
131 134
131 135
131 136
131 137
131 138
131 139
131 140
131 141
131 142
131 143
131 145
131 147
131 148
131 149
131 150
131 226
131 227
131 228
131 229
131 232
131 234
131 238
131 239
131 240
131 242
131 243
131 246
131 247
131 248
131 249
131 250
132 133
132 134
132 135
132 136
132 137
132 138
132 139
132 140
132 141
132 142
132 143
132 144
132 145
132 146
132 147
132 148
132 149
132 150
133 134
133 135
133 136
133 137
133 138
133 139
133 140
133 141
133 142
133 143
133 145
133 146
133 147
133 148
133 149
133 150
133 233
133 235
133 241
134 135
134 136
134 137
134 138
134 139
134 140
134 141
134 142
134 143
134 145
134 146
134 147
134 148
134 149
134 150
135 136
135 137
135 138
135 139
135 140
135 141
135 142
135 143
135 144
135 145
135 146
135 147
135 148
135 149
135 150
135 227
135 228
135 229
135 233
136 137
136 138
136 139
136 140
136 141
136 142
136 143
136 145
136 146
136 147
136 148
136 149
136 150
136 227
136 241
137 138
137 139
137 140
137 141
137 142
137 143
137 145
137 146
137 147
137 148
137 149
137 150
137 227
137 233
137 236
138 139
138 140
138 141
138 142
138 143
138 144
138 145
138 146
138 147
138 148
138 149
138 150
138 233
138 241
138 242
139 140
139 141
139 142
139 143
139 144
139 145
139 146
139 147
139 148
139 149
139 150
139 233
139 241
140 141
140 142
140 143
140 145
140 146
140 147
140 148
140 149
140 150
140 233
140 236
140 241
141 142
141 143
141 145
141 146
141 147
141 148
141 149
141 150
141 233
141 241
141 242
141 244
142 143
142 144
142 145
142 146
142 147
142 148
142 149
142 150
143 145
143 146
143 147
143 148
143 149
143 150
143 226
143 227
143 228
143 229
143 230
143 232
143 233
143 236
143 241
143 242
143 248
144 145
144 146
144 147
144 148
145 146
145 147
145 148
145 149
145 150
145 233
146 147
146 148
146 149
146 150
147 148
147 149
147 150
148 149
148 150
148 227
148 228
148 229
148 233
148 236
148 241
149 150
149 227
149 228
149 229
149 232
149 233
149 236
149 248
150 227
150 228
150 229
150 233
150 235
150 238
150 244
150 245
151 152
151 153
151 154
151 155
151 156
151 157
151 158
151 159
151 161
151 162
151 163
151 164
151 165
151 166
151 167
151 168
151 169
151 170
151 171
151 172
151 173
151 174
151 175
152 153
152 154
152 155
152 156
152 157
152 158
152 159
152 161
152 162
152 163
152 164
152 165
152 166
152 167
152 168
152 169
152 170
152 171
152 172
152 173
152 174
152 175
153 154
153 155
153 156
153 157
153 158
153 159
153 160
153 161
153 162
153 163
153 164
153 165
153 166
153 167
153 168
153 169
153 170
153 171
153 172
153 173
153 174
153 175
154 155
154 156
154 157
154 158
154 159
154 161
154 162
154 163
154 164
154 165
154 166
154 167
154 168
154 169
154 170
154 171
154 172
154 173
154 174
154 175
155 156
155 157
155 158
155 159
155 160
155 161
155 162
155 163
155 164
155 165
155 166
155 167
155 168
155 169
155 170
155 171
155 172
155 173
155 174
155 175
156 157
156 158
156 159
156 160
156 161
156 162
156 163
156 164
156 165
156 166
156 167
156 168
156 169
156 170
156 171
156 172
156 173
156 174
156 175
157 158
157 159
157 161
157 162
157 163
157 164
157 165
157 166
157 167
157 168
157 169
157 170
157 171
157 172
157 173
157 174
157 175
158 159
158 161
158 162
158 163
158 164
158 165
158 166
158 167
158 168
158 169
158 170
158 171
158 172
158 173
158 174
158 175
159 161
159 162
159 163
159 164
159 165
159 166
159 167
159 168
159 169
159 170
159 171
159 172
159 173
159 174
159 175
160 161
160 163
160 164
160 168
160 170
160 171
160 172
160 173
160 174
160 175
161 162
161 163
161 164
161 165
161 166
161 167
161 168
161 169
161 170
161 171
161 172
161 173
161 174
161 175
162 163
162 164
162 165
162 166
162 167
162 168
162 169
162 170
162 171
162 172
162 173
162 174
162 175
163 164
163 165
163 166
163 167
163 168
163 169
163 170
163 171
163 172
163 173
163 174
163 175
164 165
164 166
164 167
164 168
164 169
164 170
164 171
164 172
164 173
164 174
164 175
165 166
165 167
165 168
165 169
165 170
165 171
165 172
165 173
165 174
165 175
166 167
166 168
166 169
166 170
166 171
166 172
166 173
166 174
166 175
166 210
167 168
167 169
167 170
167 171
167 172
167 173
167 174
167 175
168 169
168 170
168 171
168 172
168 173
168 174
168 175
169 170
169 171
169 172
169 173
169 174
169 175
170 171
170 172
170 173
170 174
170 175
171 172
171 173
171 174
171 175
172 173
172 174
172 175
173 174
173 175
174 175
176 177
176 178
176 179
176 180
176 181
176 182
176 183
176 184
176 185
176 186
176 187
176 188
176 189
176 190
176 191
176 192
176 193
176 194
176 195
176 196
176 197
176 198
176 199
176 200
176 202
176 208
176 217
176 231
176 232
176 237
176 240
176 243
176 249
176 250
177 180
177 181
177 182
177 185
177 186
177 190
177 192
177 193
177 197
178 180
178 181
178 183
178 184
178 185
178 186
178 187
178 188
178 190
178 191
178 193
178 194
178 195
178 196
178 197
178 199
178 200
179 180
179 181
179 182
179 184
179 185
179 186
179 187
179 188
179 189
179 190
179 191
179 192
179 193
179 194
179 195
179 196
179 197
179 198
179 199
179 200
179 243
180 181
180 182
180 183
180 184
180 185
180 186
180 187
180 188
180 189
180 190
180 191
180 192
180 193
180 194
180 195
180 196
180 198
180 199
180 200
180 202
180 205
180 207
180 208
180 212
180 213
180 214
180 217
180 218
180 222
180 225
180 243
180 249
181 182
181 183
181 184
181 185
181 186
181 187
181 188
181 189
181 190
181 191
181 192
181 193
181 194
181 195
181 196
181 197
181 198
181 199
181 200
181 204
181 213
181 243
181 249
182 183
182 184
182 185
182 186
182 187
182 188
182 189
182 190
182 191
182 192
182 193
182 194
182 195
182 196
182 197
182 198
182 199
182 200
182 201
182 203
182 215
182 221
182 231
182 232
182 234
182 240
182 243
182 249
183 184
183 185
183 186
183 187
183 188
183 190
183 191
183 194
183 195
183 196
183 198
183 199
184 185
184 186
184 187
184 188
184 190
184 191
184 193
184 194
184 195
184 196
184 198
184 199
184 200
184 243
184 249
185 186
185 187
185 188
185 189
185 190
185 191
185 192
185 193
185 194
185 195
185 196
185 197
185 198
185 199
185 200
185 201
185 206
185 215
185 221
185 231
185 232
185 242
185 243
185 249
186 187
186 188
186 189
186 190
186 191
186 192
186 193
186 194
186 195
186 196
186 197
186 198
186 199
186 200
186 249
187 188
187 190
187 191
187 192
187 193
187 194
187 195
187 196
187 197
187 198
187 199
187 200
187 231
187 237
187 243
187 249
188 189
188 190
188 191
188 192
188 193
188 194
188 195
188 196
188 198
188 199
188 200
188 205
188 207
188 212
188 213
188 232
188 237
188 243
188 249
189 190
189 191
189 192
189 193
189 194
189 195
189 197
189 198
189 200
189 240
189 242
190 191
190 192
190 193
190 194
190 195
190 196
190 197
190 198
190 199
190 200
190 243
191 192
191 193
191 194
191 195
191 196
191 197
191 198
191 199
191 200
191 201
191 204
191 213
191 218
191 222
191 231
191 232
191 237
191 243
191 249
192 193
192 194
192 195
192 197
192 198
192 199
192 200
192 228
192 229
192 242
192 243
193 195
193 196
193 197
193 198
193 199
193 200
193 231
194 195
194 196
194 198
194 199
194 200
194 213
195 196
195 197
195 198
195 199
195 200
195 243
195 249
196 198
196 199
196 200
196 202
196 204
196 205
196 207
196 208
196 210
196 212
196 213
196 214
196 217
196 218
196 219
196 222
196 225
196 249
197 198
197 200
197 228
197 243
198 199
198 200
198 231
198 232
198 237
198 240
198 242
198 243
198 249
199 200
199 243
199 249
200 249
201 202
201 203
201 204
201 205
201 206
201 207
201 208
201 209
201 210
201 211
201 212
201 213
201 214
201 215
201 216
201 217
201 218
201 219
201 220
201 221
201 222
201 223
201 224
201 225
201 237
202 203
202 204
202 205
202 206
202 207
202 208
202 209
202 210
202 211
202 212
202 213
202 214
202 215
202 216
202 217
202 218
202 219
202 220
202 221
202 222
202 223
202 224
202 225
202 237
203 204
203 205
203 206
203 207
203 208
203 209
203 210
203 211
203 212
203 213
203 214
203 215
203 216
203 217
203 218
203 219
203 220
203 221
203 222
203 223
203 224
203 225
204 205
204 206
204 207
204 208
204 209
204 210
204 211
204 212
204 213
204 214
204 215
204 216
204 217
204 218
204 219
204 220
204 221
204 222
204 223
204 224
204 225
205 206
205 207
205 208
205 209
205 210
205 211
205 212
205 213
205 214
205 215
205 216
205 217
205 218
205 219
205 220
205 221
205 222
205 223
205 224
205 225
206 207
206 208
206 209
206 210
206 211
206 212
206 213
206 214
206 215
206 216
206 217
206 218
206 219
206 220
206 221
206 222
206 223
206 224
206 225
206 243
207 208
207 209
207 210
207 211
207 212
207 213
207 214
207 215
207 216
207 217
207 218
207 219
207 220
207 221
207 222
207 223
207 224
207 225
208 209
208 210
208 211
208 212
208 213
208 214
208 215
208 216
208 217
208 218
208 219
208 220
208 221
208 222
208 223
208 224
208 225
208 237
209 210
209 211
209 212
209 213
209 214
209 215
209 216
209 217
209 218
209 219
209 220
209 221
209 222
209 223
209 224
209 225
209 237
209 243
210 211
210 212
210 213
210 214
210 215
210 216
210 217
210 218
210 219
210 220
210 221
210 222
210 223
210 224
210 225
211 212
211 213
211 214
211 215
211 216
211 217
211 218
211 219
211 220
211 221
211 222
211 223
211 224
211 225
212 213
212 214
212 215
212 216
212 217
212 218
212 219
212 220
212 221
212 222
212 223
212 224
212 225
213 214
213 215
213 216
213 217
213 218
213 219
213 220
213 221
213 222
213 223
213 224
213 225
214 215
214 216
214 217
214 218
214 219
214 220
214 221
214 222
214 223
214 224
214 225
215 216
215 217
215 218
215 219
215 220
215 221
215 222
215 223
215 224
215 225
215 243
216 217
216 218
216 219
216 220
216 221
216 222
216 223
216 224
216 225
217 218
217 219
217 220
217 221
217 222
217 223
217 224
217 225
218 219
218 220
218 221
218 222
218 223
218 224
218 225
218 237
219 220
219 221
219 222
219 223
219 224
219 225
220 221
220 222
220 223
220 224
220 225
220 237
220 243
221 222
221 223
221 224
221 225
221 243
222 223
222 224
222 225
222 237
223 224
223 225
224 225
226 227
226 228
226 229
226 230
226 231
226 232
226 233
226 234
226 235
226 236
226 237
226 238
226 239
226 240
226 241
226 242
226 243
226 244
226 245
226 246
226 247
226 248
226 249
226 250
227 228
227 229
227 230
227 231
227 232
227 233
227 234
227 235
227 236
227 237
227 238
227 239
227 240
227 241
227 242
227 243
227 244
227 245
227 246
227 247
227 248
227 249
227 250
228 229
228 230
228 231
228 232
228 233
228 234
228 235
228 236
228 237
228 238
228 239
228 240
228 241
228 242
228 243
228 244
228 245
228 246
228 247
228 248
228 249
228 250
229 230
229 231
229 232
229 233
229 234
229 235
229 236
229 237
229 238
229 239
229 240
229 241
229 242
229 243
229 244
229 245
229 246
229 247
229 248
229 249
229 250
230 231
230 232
230 233
230 234
230 235
230 236
230 237
230 238
230 239
230 240
230 241
230 242
230 243
230 244
230 245
230 246
230 247
230 248
230 249
231 232
231 234
231 235
231 236
231 237
231 238
231 239
231 240
231 242
231 243
231 245
231 246
231 247
231 248
231 249
231 250
232 233
232 234
232 235
232 236
232 237
232 238
232 239
232 240
232 241
232 242
232 243
232 244
232 245
232 246
232 247
232 248
232 249
232 250
233 234
233 235
233 236
233 237
233 238
233 239
233 240
233 241
233 242
233 244
233 245
233 246
233 247
233 248
233 249
234 235
234 236
234 237
234 238
234 239
234 240
234 241
234 242
234 243
234 244
234 245
234 246
234 247
234 248
234 249
234 250
235 236
235 237
235 238
235 239
235 240
235 241
235 242
235 243
235 244
235 245
235 246
235 247
235 248
235 249
236 237
236 238
236 239
236 240
236 241
236 242
236 243
236 244
236 245
236 246
236 247
236 248
236 249
237 238
237 239
237 240
237 242
237 243
237 244
237 245
237 246
237 247
237 248
237 249
237 250
238 239
238 240
238 241
238 242
238 243
238 244
238 245
238 246
238 247
238 248
238 249
238 250
239 240
239 241
239 242
239 243
239 244
239 245
239 246
239 247
239 248
239 249
239 250
240 241
240 242
240 243
240 244
240 245
240 246
240 247
240 248
240 249
240 250
241 242
241 244
241 245
241 246
241 247
241 248
242 243
242 244
242 245
242 246
242 247
242 248
242 249
242 250
243 244
243 245
243 247
243 248
243 249
243 250
244 245
244 247
244 248
244 249
245 246
245 247
245 248
245 249
246 247
246 248
246 249
246 250
247 248
247 249
247 250
248 249
248 250
249 250
